NAME : u159.69198.tour
COMMENT : Cost = 13920_69198
COMMENT : Found by LKH [Keld Helsgaun] Thu Nov 16 17:47:03 2017
TYPE : TOUR
DIMENSION : 163
TOUR_SECTION
1
126
129
130
123
48
74
73
72
71
70
69
68
67
66
65
64
62
61
63
54
53
52
42
131
163
158
157
156
155
150
149
145
141
139
137
136
135
38
40
44
122
121
120
119
91
90
89
88
87
96
95
94
92
93
118
117
116
115
114
124
128
127
160
3
6
153
152
7
8
9
10
12
11
13
14
15
16
17
18
19
20
21
22
23
24
25
26
27
28
29
30
31
32
33
34
35
36
37
138
140
142
143
144
146
147
148
151
154
5
4
2
161
134
41
43
45
46
47
49
51
50
75
76
77
78
79
80
81
82
83
84
85
86
97
98
99
100
101
102
103
104
105
106
107
108
109
110
111
112
113
125
162
132
60
59
58
57
56
55
39
133
159
-1
EOF
